(declare-fun var0 () String)
(assert (RegexIn var0 (RegexConcat (RegexUnion (RegexStar (RegexPlus (RegexStar (RegexUnion (RegexStar (RegexUnion (RegexPlus (RegexPlus (Str2Reg "n"))) (RegexPlus (RegexPlus (Str2Reg "ooo"))))) (RegexStar (RegexStar (RegexStar (RegexStar (Str2Reg "p"))))))))) (RegexStar (RegexUnion (RegexStar (RegexPlus (RegexUnion (RegexStar (RegexStar (RegexUnion (Str2Reg "q") (Str2Reg "r")))) (RegexStar (RegexPlus (RegexUnion (Str2Reg "sss") (Str2Reg "ttt"))))))) (RegexStar (RegexUnion (RegexPlus (RegexStar (RegexPlus (RegexStar (Str2Reg "u"))))) (RegexUnion (RegexUnion (RegexUnion (RegexUnion (Str2Reg "vv") (Str2Reg "w")) (RegexStar (Str2Reg "xxx"))) (RegexUnion (RegexPlus (Str2Reg "yy")) (RegexPlus (Str2Reg "z")))) (RegexPlus (RegexPlus (RegexPlus (Str2Reg "A")))))))))) (RegexUnion (RegexPlus (RegexUnion (RegexStar (RegexStar (RegexStar (RegexUnion (RegexStar (RegexStar (Str2Reg "00"))) (RegexUnion (RegexUnion (Str2Reg "111") (Str2Reg "222")) (RegexPlus (Str2Reg "333"))))))) (RegexStar (RegexPlus (RegexUnion (RegexUnion (RegexPlus (RegexPlus (Str2Reg "44"))) (RegexPlus (RegexPlus (Str2Reg "5")))) (RegexStar (RegexStar (RegexUnion (Str2Reg "6") (Str2Reg "77"))))))))) (RegexPlus (RegexUnion (RegexUnion (RegexUnion (RegexStar (RegexPlus (RegexUnion (RegexUnion (Str2Reg "8") (Str2Reg "999")) (RegexUnion (Str2Reg "aa") (Str2Reg "bbb"))))) (RegexStar (RegexStar (RegexStar (RegexPlus (Str2Reg "c")))))) (RegexStar (RegexPlus (RegexUnion (RegexStar (RegexUnion (Str2Reg "ddd") (Str2Reg "ee"))) (RegexStar (RegexUnion (Str2Reg "ff") (Str2Reg "gg"))))))) (RegexUnion (RegexStar (RegexUnion (RegexUnion (RegexPlus (RegexStar (Str2Reg "hh"))) (RegexPlus (RegexPlus (Str2Reg "ii")))) (RegexStar (RegexStar (RegexUnion (Str2Reg "jj") (Str2Reg "kk")))))) (RegexPlus (RegexStar (RegexPlus (RegexStar (RegexUnion (Str2Reg "l") (Str2Reg "m")))))))))))))
(assert (<= 15 (Length var0)))
(check-sat)